benchmarks/bfuzz0/417266544231401922993188943023420860.smt2
(set-logic QF_FP)
(declare-const x0 (_ FloatingPoint 11 53))
(declare-const x1 (_ FloatingPoint 11 53))
(declare-const x2 (_ FloatingPoint 11 53))
(declare-const x3 (_ FloatingPoint 11 53))
(declare-const x4 (_ FloatingPoint 11 53))
(declare-const x5 (_ FloatingPoint 11 53))
(declare-const x6 (_ FloatingPoint 11 53))
(declare-const x7 (_ FloatingPoint 11 53))
(declare-const x8 (_ FloatingPoint 11 53))
(declare-const x9 (_ FloatingPoint 11 53))
(declare-const x10 (_ FloatingPoint 11 53))
(declare-const x11 (_ FloatingPoint 11 53))
(declare-const x12 (_ FloatingPoint 11 53))
(declare-const x13 (_ FloatingPoint 11 53))
(declare-const x14 (_ FloatingPoint 11 53))
(assert (fp.geq (fp.neg x10) (fp.neg x9)))
(assert (fp.geq (fp.neg x4) (fp.add RNE x1 x14)))
(assert (fp.leq (fp.div RNE x14 x5) (fp.add RNE x11 x1)))
(assert (fp.eq (fp.add RNE x6 x1) (fp.div RNE x10 x10)))
(assert (fp.lt (fp.div RNE x11 x1) (fp.add RNE x9 x2)))
(assert (fp.eq (fp.div RNE x13 x7) (fp.mul RNE x11 x13)))
(check-sat)
