db/data/417266544231401922993188943023420860.z3.out
sat
-------------------
333.693034222
